com.javasolver.samples/LP/com.javasolver.samples.InsideOutsideProduction_278e0bf4-434c-4dcd-94dc-acd53f8de927.mps
NAME          com.javasolver.samples.InsideOutsideProduction
ROWS
 N  _OBJ_
 E  C1
 E  C2
 E  C3
 L  C4
 L  C5
 E  C6
 G  C7
 E  C8
 G  C9
 E  C10
 G  C11
COLUMNS
    Vr0       C1               0.600   C4               0.500   
    Vr0       C5               0.200   C6                   1   
    Vr1       C1               0.800   C4               0.400   
    Vr1       C5               0.400   C8                   1   
    Vr2       C1               0.300   C4               0.300   
    Vr2       C5               0.600   C10                  1   
    Vr3       C2               0.800   C6                   1   
    Vr4       C2               0.900   C8                   1   
    Vr5       C2               0.400   C10                  1   
    Vr6       C1                  -1   C3                   1   
    Vr7       C2                  -1   C3                   1   
    Vr8       C6                  -1   C7                   1   
    Vr9       C8                  -1   C9                   1   
    Vr10      C10                 -1   C11                  1   
    Vr11      C3                  -1   
    Vr11      _OBJ_                1   
RHS
    rhs       C4                  20   C5                  40   
    rhs       C7                 100   C9                 200   
    rhs       C11                300   
BOUNDS
 UP bnd       Vr0                100   
 UP bnd       Vr1                200   
 UP bnd       Vr2                300   
 UP bnd       Vr3                100   
 UP bnd       Vr4                200   
 UP bnd       Vr5                300   
 UP bnd       Vr6                310   
 UP bnd       Vr7                380   
 UP bnd       Vr8                200   
 UP bnd       Vr9                400   
 UP bnd       Vr10               600   
 UP bnd       Vr11               690   
ENDATA
