com.javasolver.samples/LP/com.javasolver.samples.InsideOutsideProduction_278e0bf4-434c-4dcd-94dc-acd53f8de927.sol
solution status: optimal solution found
objective value:                                  372
Vr0                                                40 	(obj:0)
Vr3                                                60 	(obj:0)
Vr4                                               200 	(obj:0)
Vr5                                               300 	(obj:0)
Vr6                                                24 	(obj:0)
Vr7                                               348 	(obj:0)
Vr8                                               100 	(obj:0)
Vr9                                               200 	(obj:0)
Vr10                                              300 	(obj:0)
Vr11                                              372 	(obj:1)
